32	0

0	1	2
1	1	3
3	1	4
10	1	5
4	1	6
5	1	7
5	1	8
3	2	9	10
2	1	11
5	1	11
10	1	12
8	1	13
9	1	14
7	1	15
3	1	16
7	2	17	18
7	1	19
6	2	19	20
6	1	21
5	1	21
9	1	22
9	1	23
9	1	24
5	2	25	26
7	1	27
7	1	27
3	1	28
2	1	29
6	1	30
9	1	31
7	1	32
0	0
